
Gurobi 9.5.1 (linux64) logging started Sun Jun 19 02:08:19 2022

Set parameter LogFile to value "../results/logs/log_CA-CondMat_4_2_2022_06_19_02_07.log"
Gurobi Optimizer version 9.5.1 build v9.5.1rc2 (linux64)
Thread count: 8 physical cores, 8 logical processors, using up to 8 threads
Optimize a model with 2021 rows, 46266 columns and 22867 nonzeros
Model fingerprint: 0x17436743
Variable types: 0 continuous, 46266 integer (46266 binary)
Coefficient statistics:
  Matrix range     [1e+00, 4e+00]
  Objective range  [1e+00, 1e+00]
  Bounds range     [1e+00, 1e+00]
  RHS range        [1e+00, 2e+00]
Found heuristic solution: objective 13464.000000
Presolve removed 981 rows and 44696 columns
Presolve time: 0.09s
Presolved: 1040 rows, 1570 columns, 5083 nonzeros
Variable types: 0 continuous, 1570 integer (1392 binary)
Found heuristic solution: objective 13466.000000

Root relaxation: objective 1.359985e+04, 490 iterations, 0.00 seconds (0.00 work units)

    Nodes    |    Current Node    |     Objective Bounds      |     Work
 Expl Unexpl |  Obj  Depth IntInf | Incumbent    BestBd   Gap | It/Node Time

     0     0 13599.8486    0  145 13466.0000 13599.8486  0.99%     -    0s
H    0     0                    13471.000000 13599.8486  0.96%     -    0s
H    0     0                    13472.000000 13599.8486  0.95%     -    0s
H    0     0                    13474.000000 13599.8486  0.93%     -    0s
H    0     0                    13475.000000 13597.3116  0.91%     -    0s
     0     0 13480.0962    0   28 13475.0000 13480.0962  0.04%     -    0s
H    0     0                    13476.000000 13480.0962  0.03%     -    0s
     0     0 13479.7417    0   22 13476.0000 13479.7417  0.03%     -    0s
     0     0 13479.5729    0   22 13476.0000 13479.5729  0.03%     -    0s
     0     0 13477.6593    0   23 13476.0000 13477.6593  0.01%     -    0s

Cutting planes:
  Gomory: 69
  Cover: 9
  Implied bound: 1
  MIR: 59
  StrongCG: 7
  GUB cover: 65
  Zero half: 10
  RLT: 15
  Relax-and-lift: 1

Explored 1 nodes (708 simplex iterations) in 0.22 seconds (0.15 work units)
Thread count was 8 (of 8 available processors)

Solution count 7: 13476 13475 13474 ... 13464

Optimal solution found (tolerance 0.00e+00)
Best objective 1.347600000000e+04, best bound 1.347600000000e+04, gap 0.0000%
